Version identifier: 22.1.0.0 | 2022-03-09 | 1a383f8ce
CPXPARAM_Threads                                 1
CPXPARAM_MIP_Strategy_VariableSelect             3
CPXPARAM_TimeLimit                               599.99992844500002
1 of 1 MIP starts provided solutions.
MIP start 'm1' defined initial solution with objective 83.0000.
Tried aggregator 1 time.
MIP Presolve eliminated 17 rows and 0 columns.
MIP Presolve modified 5 coefficients.
Reduced MIP has 2108 rows, 7500 columns, and 125196 nonzeros.
Reduced MIP has 7500 binaries, 0 generals, 0 SOSs, and 0 indicators.
Presolve time = 0.06 sec. (50.60 ticks)
Probing time = 0.01 sec. (8.92 ticks)
Tried aggregator 1 time.
Detecting symmetries...
Reduced MIP has 2108 rows, 7500 columns, and 125196 nonzeros.
Reduced MIP has 7500 binaries, 0 generals, 0 SOSs, and 0 indicators.
Presolve time = 0.08 sec. (60.66 ticks)
Probing time = 0.01 sec. (8.92 ticks)
Clique table members: 301.
MIP emphasis: balance optimality and feasibility.
MIP search method: dynamic search.
Parallel mode: none, using 1 thread.
Root relaxation solution time = 0.12 sec. (135.96 ticks)

        Nodes                                         Cuts/
   Node  Left     Objective  IInf  Best Integer    Best Bound    ItCnt     Gap

*     0+    0                           83.0000     7500.0000              --- 
      0     0      300.0000   120       83.0000      300.0000     1167  261.45%
*     0+    0                          298.0000      300.0000             0.67%
*     0+    0                          300.0000      300.0000             0.00%
      0     0        cutoff            300.0000      300.0000     1167    0.00%
Elapsed time = 0.66 sec. (518.00 ticks, tree = 0.01 MB, solutions = 3)

Root node processing (before b&c):
  Real time             =    0.66 sec. (518.34 ticks)
Sequential b&c:
  Real time             =    0.00 sec. (0.00 ticks)
                          ------------
Total (root+branch&cut) =    0.66 sec. (518.34 ticks)
Primal:	300
Dual:	300
Status:	Optimal
Time:	0.69
Sequence:
	16
	0
	11
	9
	1
	7
	22
	24
	23
	16
	23
	23
	3
	11
	6
	23
	9
	21
	9
	9
	9
	0
	10
	9
	8
	0
	24
	3
	0
	24
	9
	20
	20
	18
	20
	20
	20
	13
	18
	17
	13
	9
	21
	13
	8
	20
	20
	22
	20
	9
	16
	20
	20
	1
	24
	16
	6
	8
	8
	13
	0
	21
	6
	10
	6
	3
	3
	0
	3
	3
	3
	21
	3
	3
	20
	20
	20
	20
	21
	20
	24
	5
	8
	16
	21
	3
	15
	20
	13
	7
	21
	21
	6
	14
	6
	6
	10
	6
	6
	6
	6
	3
	3
	14
	21
	3
	9
	0
	3
	3
	3
	6
	3
	6
	21
	17
	6
	6
	17
	6
	6
	6
	6
	17
	17
	15
	17
	3
	1
	3
	3
	1
	10
	9
	17
	8
	0
	12
	3
	14
	6
	15
	10
	22
	20
	22
	0
	22
	3
	13
	16
	12
	12
	6
	12
	12
	12
	21
	12
	12
	14
	0
	12
	13
	13
	11
	12
	11
	11
	6
	6
	8
	19
	10
	6
	8
	8
	24
	0
	15
	8
	18
	1
	16
	2
	15
	15
	2
	3
	18
	13
	16
	16
	21
	11
	15
	13
	7
	12
	23
	1
	6
	16
	16
	16
	16
	4
	5
	5
	6
	0
	6
	9
	14
	3
	0
	12
	16
	5
	5
	12
	5
	13
	5
	6
	5
	13
	5
	6
	5
	0
	6
	22
	7
	22
	3
	21
	0
	3
	0
	4
	14
	21
	4
	15
	0
	3
	0
	4
	4
	0
	22
	2
	2
	4
	9
	16
	21
	4
	7
	14
	6
	4
	4
	13
	0
	16
	1
	1
	16
	4
	10
	5
	16
	4
	0
	4
	5
	4
	1
	16
	1
	12
	1
	4
	16
	4
	6
	23
	4
	12
	1
	22
	20
	1
	16
	17
	11
	9
	17
